11,6	0,0	19,2	6,1	0,0	0,0	0,0	0,0	0,0	16,3
6,8	15,6	0,0	14,4	5,8	0,0	0,0	7,8	0,0	0,0
0,0	0,0	17,2	0,0	14,9	15,0	0,0	0,0	10,7	0,0
16,5	0,0	11,2	0,0	0,0	0,0	5,9	0,0	0,0	0,0
0,0	17,0	0,0	18,2	16,5	0,0	0,0	5,9	0,0	0,0
0,0	15,8	7,8	0,0	19,2	7,8	0,0	0,0	18,2	0,0
0,0	17,7	0,0	19,0	0,0	0,0	17,1	0,0	0,0	7,6
14,4	0,0	16,8	0,0	0,0	0,0	0,0	0,0	0,0	15,8
0,0	14,4	0,0	6,4	5,5	0,0	0,0	15,6	0,0	0,0
0,0	0,0	10,1	0,0	0,0	15,0	16,6	0,0	0,0	7,9
									
4,1	3,7	4,8	2,8	2,9	4,9	2,8	4,4	3,0	4,1
